9
0 65 5 74 44 90 53 47 68 
65 0 85 38 100 71 50 39 86 
5 85 0 44 79 75 96 91 17 
74 38 44 0 71 49 98 95 74 
44 100 79 71 0 92 51 91 24 
90 71 75 49 92 0 88 34 73 
53 50 96 98 51 88 0 38 45 
47 39 91 95 91 34 38 0 27 
68 86 17 74 24 73 45 27 0 
